jobs  (incl. supersource/sink ):	52
RESOURCES
- renewable                 : 4 R
- nonrenewable              : 4 N
- doubly constrained        : 0 D
************************************************************************
PRECEDENCE RELATIONS:
jobnr.    #modes  #successors   successors
1	1	10		2 3 4 5 7 8 9 10 12 16 
2	6	7		37 23 20 19 14 11 6 
3	6	6		24 20 17 14 13 11 
4	6	5		37 27 20 18 15 
5	6	7		42 41 40 29 22 17 13 
6	6	4		31 27 18 15 
7	6	5		37 28 26 24 15 
8	6	3		37 15 14 
9	6	8		42 37 34 29 28 26 23 21 
10	6	6		37 26 25 24 21 20 
11	6	3		28 26 15 
12	6	6		33 29 28 26 22 21 
13	6	8		39 37 34 31 30 28 27 26 
14	6	6		39 30 27 26 25 22 
15	6	4		33 29 22 21 
16	6	9		51 42 40 39 36 35 34 28 27 
17	6	6		39 37 33 30 28 26 
18	6	5		42 39 30 26 25 
19	6	6		40 39 36 30 28 27 
20	6	6		51 50 39 36 33 28 
21	6	6		48 41 40 39 35 30 
22	6	7		51 50 48 47 36 34 32 
23	6	6		51 48 41 36 33 32 
24	6	6		51 50 48 43 42 32 
25	6	5		50 48 47 40 32 
26	6	5		51 48 38 36 35 
27	6	5		50 49 48 44 33 
28	6	4		48 47 43 32 
29	6	4		50 45 39 38 
30	6	5		51 49 47 45 43 
31	6	5		51 48 45 44 43 
32	6	4		49 45 44 38 
33	6	4		47 45 43 38 
34	6	4		45 44 43 38 
35	6	4		50 46 44 43 
36	6	2		45 44 
37	6	1		38 
38	6	1		46 
39	6	1		44 
40	6	1		43 
41	6	1		43 
42	6	1		47 
43	6	1		52 
44	6	1		52 
45	6	1		52 
46	6	1		52 
47	6	1		52 
48	6	1		52 
49	6	1		52 
50	6	1		52 
51	6	1		52 
52	1	0		
************************************************************************
REQUESTS/DURATIONS
jobnr.	mode	dur	R1	R2	R3	R4	N1	N2	N3	N4	
------------------------------------------------------------------------
1	1	0	0	0	0	0	0	0	0	0	
2	1	8	4	2	4	5	19	25	21	12	
	2	10	3	2	4	4	17	24	21	12	
	3	11	3	2	4	4	15	24	19	10	
	4	16	3	2	4	4	12	24	14	8	
	5	19	2	2	4	4	10	24	13	6	
	6	26	1	2	4	4	9	24	10	5	
3	1	6	1	1	4	2	25	24	27	23	
	2	9	1	1	3	2	21	20	24	23	
	3	12	1	1	3	2	18	15	24	23	
	4	13	1	1	3	2	10	13	22	22	
	5	15	1	1	3	2	9	9	20	22	
	6	28	1	1	3	2	2	6	19	22	
4	1	5	5	4	4	3	27	10	27	26	
	2	8	4	4	3	3	20	10	27	25	
	3	12	4	4	3	3	18	10	22	25	
	4	13	4	4	3	2	15	10	19	25	
	5	20	4	3	1	2	6	10	17	25	
	6	30	4	3	1	2	1	10	16	25	
5	1	2	2	3	5	2	23	12	28	20	
	2	6	1	2	4	2	22	12	27	16	
	3	10	1	2	4	2	21	10	26	14	
	4	11	1	2	4	2	21	6	25	13	
	5	12	1	1	4	1	19	6	22	10	
	6	28	1	1	4	1	19	3	21	8	
6	1	3	3	3	4	4	24	20	27	24	
	2	5	2	3	4	4	24	18	23	20	
	3	11	2	3	4	4	24	18	19	18	
	4	12	1	3	4	4	23	17	15	13	
	5	26	1	2	3	4	22	15	11	10	
	6	30	1	2	3	4	22	15	8	5	
7	1	18	2	4	5	3	26	12	19	28	
	2	24	2	3	5	3	26	12	16	26	
	3	26	2	3	5	3	22	11	14	25	
	4	27	2	2	5	3	16	11	9	23	
	5	28	2	1	5	3	14	11	7	23	
	6	29	2	1	5	3	11	10	2	21	
8	1	11	5	1	5	4	9	18	18	14	
	2	14	4	1	4	4	9	16	18	9	
	3	15	4	1	3	4	7	12	18	9	
	4	17	3	1	3	3	6	12	18	6	
	5	20	3	1	2	3	6	7	18	3	
	6	23	3	1	1	3	5	4	18	3	
9	1	1	3	3	3	3	27	14	4	24	
	2	8	3	3	3	3	26	12	4	24	
	3	11	3	3	3	3	24	10	4	23	
	4	17	3	3	2	3	24	10	4	22	
	5	22	3	3	1	3	23	9	4	22	
	6	28	3	3	1	3	22	8	4	21	
10	1	3	5	3	3	4	2	16	24	16	
	2	10	4	3	2	3	2	14	22	14	
	3	11	4	3	2	3	2	14	16	10	
	4	21	4	2	2	3	2	12	15	9	
	5	26	3	2	2	2	2	11	13	7	
	6	28	3	1	2	2	2	9	9	4	
11	1	1	3	4	3	2	23	18	28	25	
	2	10	2	4	2	2	22	16	25	25	
	3	11	2	3	2	2	22	11	25	25	
	4	16	1	3	2	2	21	10	23	24	
	5	27	1	2	1	1	21	8	20	23	
	6	30	1	1	1	1	21	4	19	23	
12	1	5	3	4	3	3	18	21	24	29	
	2	14	2	4	3	3	17	20	19	28	
	3	17	2	4	3	3	14	20	18	28	
	4	25	1	4	3	3	12	18	15	28	
	5	26	1	3	3	3	6	17	12	27	
	6	28	1	3	3	3	5	16	10	27	
13	1	1	3	4	4	3	14	27	27	19	
	2	2	3	4	3	3	13	26	26	17	
	3	8	3	4	3	3	13	25	25	17	
	4	15	3	3	3	2	13	23	24	15	
	5	16	3	3	3	1	13	21	24	15	
	6	28	3	3	3	1	13	19	22	14	
14	1	10	5	2	3	4	23	17	19	25	
	2	11	4	2	2	3	19	15	17	23	
	3	16	4	2	2	3	17	15	14	20	
	4	17	4	2	2	3	14	14	9	17	
	5	20	4	2	1	3	11	13	7	15	
	6	23	4	2	1	3	5	11	4	14	
15	1	1	2	3	4	5	17	28	20	23	
	2	4	1	3	3	5	17	26	18	21	
	3	6	1	3	3	5	16	25	14	20	
	4	19	1	2	3	5	14	24	11	17	
	5	23	1	2	3	5	14	22	7	16	
	6	29	1	1	3	5	12	21	6	15	
16	1	3	2	5	4	2	21	27	14	22	
	2	9	1	5	3	2	16	21	12	19	
	3	10	1	5	3	2	14	20	10	18	
	4	12	1	5	2	2	11	16	9	16	
	5	18	1	5	1	2	7	13	7	12	
	6	25	1	5	1	2	4	11	6	11	
17	1	7	5	2	4	3	26	14	23	21	
	2	8	4	2	3	3	24	14	21	14	
	3	11	3	2	3	3	23	11	14	12	
	4	26	3	1	2	3	20	10	10	10	
	5	28	3	1	2	3	19	9	7	7	
	6	30	2	1	2	3	15	7	1	3	
18	1	7	4	4	3	2	28	29	20	21	
	2	18	4	4	3	2	28	26	16	21	
	3	19	4	4	3	2	27	26	14	20	
	4	23	4	4	3	2	26	23	11	18	
	5	24	4	4	3	2	25	20	9	15	
	6	26	4	4	3	2	25	18	5	15	
19	1	5	4	4	1	1	26	28	30	23	
	2	11	4	4	1	1	22	28	29	22	
	3	16	4	4	1	1	20	27	29	20	
	4	20	4	4	1	1	16	26	28	18	
	5	22	4	3	1	1	15	25	28	16	
	6	28	4	3	1	1	10	24	27	14	
20	1	6	2	4	2	4	17	23	14	18	
	2	15	2	4	2	4	15	21	13	16	
	3	16	2	4	2	3	13	18	13	12	
	4	18	2	4	2	3	10	10	12	8	
	5	20	2	4	2	1	6	8	12	5	
	6	30	2	4	2	1	4	5	11	3	
21	1	9	4	2	2	4	10	24	23	24	
	2	16	3	1	2	3	8	24	20	24	
	3	19	2	1	2	3	8	22	17	17	
	4	20	2	1	2	2	8	22	14	14	
	5	25	1	1	2	2	7	21	8	8	
	6	27	1	1	2	2	6	20	1	6	
22	1	4	1	1	2	3	22	22	23	20	
	2	6	1	1	2	3	20	22	19	16	
	3	7	1	1	2	3	19	22	18	14	
	4	23	1	1	2	3	16	22	13	14	
	5	26	1	1	2	3	15	22	12	9	
	6	27	1	1	2	3	15	22	8	8	
23	1	1	4	4	4	2	24	3	25	12	
	2	5	4	4	3	2	21	3	24	12	
	3	12	4	4	2	2	17	3	22	11	
	4	19	4	4	2	2	13	2	21	11	
	5	20	4	3	1	2	11	2	19	10	
	6	24	4	3	1	2	7	2	19	9	
24	1	11	4	2	4	1	25	16	27	6	
	2	12	3	1	4	1	22	13	24	5	
	3	17	3	1	4	1	21	11	23	5	
	4	24	3	1	3	1	18	10	22	5	
	5	25	2	1	3	1	18	7	21	5	
	6	28	2	1	3	1	16	5	19	5	
25	1	1	3	3	4	3	18	12	18	25	
	2	2	3	3	3	3	13	11	18	24	
	3	4	2	2	3	3	11	9	17	22	
	4	12	2	2	2	2	11	6	17	21	
	5	22	2	1	2	2	7	5	17	19	
	6	25	1	1	1	2	3	3	16	18	
26	1	3	2	3	4	5	21	26	19	25	
	2	9	2	3	3	5	21	24	17	25	
	3	12	2	3	2	5	21	23	15	25	
	4	14	2	3	2	5	21	20	14	24	
	5	19	1	3	1	5	21	19	12	24	
	6	22	1	3	1	5	21	19	10	23	
27	1	8	4	3	3	2	15	20	29	22	
	2	14	4	3	3	2	13	16	29	17	
	3	19	4	3	3	2	12	11	29	15	
	4	20	4	3	3	2	10	8	29	14	
	5	24	3	2	3	2	10	4	28	10	
	6	26	3	2	3	2	9	3	28	8	
28	1	6	2	5	4	3	13	16	21	28	
	2	7	2	4	4	3	12	15	18	27	
	3	13	2	4	4	3	12	14	15	26	
	4	21	1	3	3	3	11	13	13	25	
	5	25	1	2	3	3	11	12	12	22	
	6	27	1	2	3	3	10	12	9	21	
29	1	4	2	3	5	4	27	14	20	11	
	2	16	2	3	4	3	26	12	19	11	
	3	20	2	3	4	3	25	9	18	11	
	4	21	2	2	4	3	25	8	15	11	
	5	22	1	1	4	3	25	5	14	11	
	6	28	1	1	4	3	24	4	10	11	
30	1	4	4	5	1	5	7	30	16	22	
	2	6	3	4	1	5	7	28	14	22	
	3	8	3	4	1	5	7	25	13	21	
	4	13	3	4	1	5	7	25	13	19	
	5	29	3	4	1	5	7	23	12	18	
	6	30	3	4	1	5	7	21	11	17	
31	1	3	4	5	4	4	25	27	18	25	
	2	5	4	4	4	3	22	26	18	20	
	3	17	3	3	3	3	21	25	18	18	
	4	19	3	3	3	3	19	20	18	12	
	5	24	3	2	2	3	18	18	18	9	
	6	27	2	1	2	3	14	17	18	8	
32	1	9	3	4	2	3	26	12	24	15	
	2	10	3	4	2	2	25	11	19	15	
	3	12	2	4	2	2	25	9	17	14	
	4	23	2	3	2	2	25	9	13	13	
	5	24	1	2	2	2	24	5	10	13	
	6	25	1	2	2	2	24	4	6	12	
33	1	18	5	3	1	5	15	19	30	26	
	2	21	4	3	1	4	13	17	30	26	
	3	22	3	3	1	4	10	16	30	25	
	4	23	3	2	1	4	8	13	30	25	
	5	25	2	2	1	3	6	13	30	25	
	6	27	2	2	1	3	5	10	30	24	
34	1	2	3	5	4	4	21	16	17	9	
	2	12	2	4	4	4	18	14	16	7	
	3	18	2	4	4	4	14	10	16	5	
	4	21	1	4	4	3	14	9	16	4	
	5	23	1	4	4	3	11	8	16	3	
	6	25	1	4	4	3	6	5	16	2	
35	1	7	2	5	5	2	19	17	20	23	
	2	11	2	5	5	2	17	16	16	21	
	3	15	2	5	5	2	16	16	14	19	
	4	16	2	5	5	2	14	16	11	14	
	5	17	2	5	5	2	13	15	9	10	
	6	18	2	5	5	2	12	15	7	10	
36	1	1	3	2	5	4	6	12	24	26	
	2	4	3	2	5	4	4	9	24	24	
	3	24	3	2	5	4	4	8	22	23	
	4	25	3	2	5	4	3	7	21	20	
	5	29	2	2	5	4	1	6	21	19	
	6	30	2	2	5	4	1	5	20	18	
37	1	3	4	2	2	4	22	13	30	14	
	2	4	3	2	2	3	19	11	27	14	
	3	8	3	2	2	3	17	10	23	13	
	4	13	2	2	2	3	14	9	22	13	
	5	19	2	2	2	3	13	8	20	13	
	6	23	1	2	2	3	7	7	16	12	
38	1	1	4	5	4	4	30	24	20	14	
	2	2	3	4	4	3	29	22	16	12	
	3	14	3	4	4	3	29	22	14	12	
	4	15	2	4	4	3	28	21	12	10	
	5	20	2	3	4	3	28	21	11	10	
	6	24	1	3	4	3	27	20	9	8	
39	1	2	3	5	4	5	18	25	18	18	
	2	6	2	5	4	4	16	24	17	13	
	3	16	2	5	3	3	16	24	16	10	
	4	23	2	5	3	2	14	24	12	10	
	5	27	1	5	3	1	11	24	12	7	
	6	28	1	5	2	1	10	24	10	2	
40	1	1	4	2	5	1	22	24	12	25	
	2	7	4	2	3	1	20	21	8	24	
	3	12	4	2	3	1	16	21	8	23	
	4	17	3	1	3	1	12	18	5	23	
	5	23	2	1	2	1	8	17	4	23	
	6	30	2	1	1	1	4	15	2	22	
41	1	9	2	5	3	2	14	28	14	28	
	2	20	2	5	3	2	13	25	13	23	
	3	22	2	5	3	2	10	24	12	20	
	4	24	2	5	3	2	7	23	9	17	
	5	25	2	5	2	2	6	20	7	10	
	6	26	2	5	2	2	4	18	6	8	
42	1	12	4	4	3	4	16	13	15	27	
	2	16	4	3	3	4	12	11	15	22	
	3	21	4	3	2	4	11	10	15	17	
	4	26	4	2	2	4	7	8	15	12	
	5	27	4	1	2	4	6	8	15	9	
	6	30	4	1	1	4	3	5	15	4	
43	1	1	3	3	2	4	10	27	24	26	
	2	2	2	3	2	4	9	27	24	22	
	3	3	2	3	2	4	6	25	24	20	
	4	5	1	3	2	4	6	24	23	17	
	5	12	1	3	2	4	3	23	23	13	
	6	20	1	3	2	4	1	20	23	7	
44	1	5	4	3	4	4	19	10	5	17	
	2	15	4	3	3	3	17	8	4	14	
	3	16	4	3	3	3	16	7	3	12	
	4	21	4	3	3	2	15	4	3	8	
	5	24	4	2	3	2	14	3	2	5	
	6	30	4	2	3	1	14	2	2	4	
45	1	5	4	5	4	3	12	19	22	15	
	2	7	4	4	4	2	12	18	17	15	
	3	19	4	4	3	2	12	15	16	14	
	4	20	3	4	3	1	12	12	14	13	
	5	21	2	3	1	1	12	7	13	11	
	6	22	2	3	1	1	12	4	10	11	
46	1	5	4	3	2	2	22	12	12	8	
	2	6	4	3	1	2	21	11	10	7	
	3	7	4	3	1	2	20	11	10	5	
	4	16	4	3	1	2	20	11	9	4	
	5	17	4	3	1	1	18	10	6	2	
	6	25	4	3	1	1	18	10	6	1	
47	1	9	4	3	5	5	13	20	11	12	
	2	10	3	3	4	5	13	19	8	11	
	3	12	3	3	3	5	13	17	7	10	
	4	13	2	3	2	5	13	17	6	8	
	5	16	2	3	2	5	13	16	5	7	
	6	28	1	3	1	5	13	15	4	5	
48	1	10	5	4	3	3	25	16	23	28	
	2	22	4	4	3	3	22	15	21	28	
	3	24	4	4	2	3	22	13	18	27	
	4	26	3	4	2	3	19	13	11	25	
	5	27	2	4	1	3	18	12	8	24	
	6	28	2	4	1	3	16	11	5	24	
49	1	3	2	2	4	3	25	20	18	11	
	2	6	2	2	4	3	19	18	18	11	
	3	11	2	2	4	2	16	16	16	11	
	4	14	2	2	4	2	11	15	15	11	
	5	15	2	2	4	2	6	14	15	11	
	6	26	2	2	4	1	4	10	14	11	
50	1	8	5	3	5	5	20	23	13	11	
	2	11	4	3	4	4	19	19	12	11	
	3	14	4	3	4	3	19	19	11	9	
	4	21	4	3	4	3	18	16	10	8	
	5	22	4	2	3	2	17	13	9	7	
	6	28	4	2	3	2	17	13	9	6	
51	1	1	2	5	3	4	28	28	28	27	
	2	3	2	3	3	4	25	28	26	23	
	3	12	2	3	2	4	24	26	24	23	
	4	17	2	2	2	4	23	26	23	20	
	5	20	1	2	1	4	19	24	22	19	
	6	24	1	1	1	4	19	22	22	15	
52	1	0	0	0	0	0	0	0	0	0	
************************************************************************

 RESOURCE AVAILABILITIES 
	R 1	R 2	R 3	R 4	N 1	N 2	N 3	N 4
	18	18	22	18	770	779	816	803

************************************************************************
